g3 0 1 0	# problem sineali
 20 0 1 0 0	# vars, constraints, objectives, ranges, eqns
 0 1	# nonlinear constraints, objectives
 0 0	# network constraints: nonlinear, linear
 0 20 0	# nonlinear vars in constraints, objectives, both
 0 0 0 1	# linear network variables; functions; arith, flags
 0 0 0 0 0	# discrete variables: binary, integer, nonlinear (b,c,o)
 0 20	# nonzeros in Jacobian, gradients
 0 0	# max name lengths: constraints, variables
 0 0 0 0 0	# common exprs: b,c,o,c1,o1
b
0 -4.71238898025 1.57079632675
0 -4.510731456119814 1.772453850880186
0 -4.510731456119814 1.772453850880186
0 -4.510731456119814 1.772453850880186
0 -4.510731456119814 1.772453850880186
0 -4.510731456119814 1.772453850880186
0 -4.510731456119814 1.772453850880186
0 -4.510731456119814 1.772453850880186
0 -4.510731456119814 1.772453850880186
0 -4.510731456119814 1.772453850880186
0 -4.510731456119814 1.772453850880186
0 -4.510731456119814 1.772453850880186
0 -4.510731456119814 1.772453850880186
0 -4.510731456119814 1.772453850880186
0 -4.510731456119814 1.772453850880186
0 -4.510731456119814 1.772453850880186
0 -4.510731456119814 1.772453850880186
0 -4.510731456119814 1.772453850880186
0 -4.510731456119814 1.772453850880186
0 -4.510731456119814 1.772453850880186
x20
0 0
1 0
2 0
3 0
4 0
5 0
6 0
7 0
8 0
9 0
10 0
11 0
12 0
13 0
14 0
15 0
16 0
17 0
18 0
19 0
O0 0
o54
20
o41
o0
n-1
v0
o2
n100
o41
o1
v1
o5
v0
n2
o2
n100
o41
o1
v2
o5
v1
n2
o2
n100
o41
o1
v3
o5
v2
n2
o2
n100
o41
o1
v4
o5
v3
n2
o2
n100
o41
o1
v5
o5
v4
n2
o2
n100
o41
o1
v6
o5
v5
n2
o2
n100
o41
o1
v7
o5
v6
n2
o2
n100
o41
o1
v8
o5
v7
n2
o2
n100
o41
o1
v9
o5
v8
n2
o2
n100
o41
o1
v10
o5
v9
n2
o2
n100
o41
o1
v11
o5
v10
n2
o2
n100
o41
o1
v12
o5
v11
n2
o2
n100
o41
o1
v13
o5
v12
n2
o2
n100
o41
o1
v14
o5
v13
n2
o2
n100
o41
o1
v15
o5
v14
n2
o2
n100
o41
o1
v16
o5
v15
n2
o2
n100
o41
o1
v17
o5
v16
n2
o2
n100
o41
o1
v18
o5
v17
n2
o2
n100
o41
o1
v19
o5
v18
n2
k19
0
0
0
0
0
0
0
0
0
0
0
0
0
0
0
0
0
0
0
G0 20
0 0
1 0
2 0
3 0
4 0
5 0
6 0
7 0
8 0
9 0
10 0
11 0
12 0
13 0
14 0
15 0
16 0
17 0
18 0
19 0
